ATOMIC_SPECIES
O  15.9990 O.upf upf201
Ce 140.1160 Ce.upf upf201
Zr  91.2240 Zr.upf upf201

NUMERICAL_ORBITAL
O_gga_6au_100Ry_2s2p1d.orb
Ce_gga_100Ry_6au_4s2p2d1f.orb
Zr_gga_6au_100Ry_4s2p2d1f.orb

LATTICE_CONSTANT
1.8897260000

LATTICE_VECTORS
       11.8910071094       -0.0000028459       -0.0000019682
       -5.9455239926       10.2979032261        0.0000016024
       -0.0000378911        0.0000211719       19.8859054798

ATOMIC_POSITIONS
Direct

O #label
0.0000   #magnetism
54 #number of atoms
        0.1111101517        0.2222234059        0.9914573643 m 1 1 1
        0.0004510626        0.0009011339        0.1548495135 m 1 1 1
        0.2234642895        0.1098696262        0.3249915577 m 1 1 1
        0.2222646341        0.1110689323        0.0748616503 m 1 1 1
        0.1111116620        0.2222215893        0.2442951733 m 1 1 1
        0.9998736916        0.9997418983        0.4064840319 m 1 1 1
        0.4438052272        0.2216966359        0.9909623252 m 1 1 1
        0.3328921252        0.0004411864        0.1552631878 m 1 1 1
        0.5570883678        0.1141735646        0.3266168279 m 1 1 1
        0.5556809240        0.1113637529        0.0742764979 m 1 1 1
        0.4459880945        0.2254368991        0.2442266243 m 1 1 1
        0.3324996199        0.0008341655        0.4067665179 m 1 1 1
        0.7778875299        0.2216965281        0.9909621282 m 1 1 1
        0.6675495828        0.0004410204        0.1552630411 m 1 1 1
        0.8864092830        0.1098691717        0.3249911373 m 1 1 1
        0.8888022872        0.1110688458        0.0748614168 m 1 1 1
        0.7794507118        0.2254368158        0.2442263012 m 1 1 1
        0.6683402112        0.0008336688        0.4067663519 m 1 1 1
        0.1116371259        0.5554460007        0.9909621630 m 1 1 1
        0.0004507159        0.3328823424        0.1548491956 m 1 1 1
        0.2234632585        0.4469239214        0.3249912065 m 1 1 1
        0.2222646692        0.4445312298        0.0748614587 m 1 1 1
        0.1078956325        0.5538822514        0.2442265465 m 1 1 1
        0.9998733587        0.3334598315        0.4064838332 m 1 1 1
        0.4438055567        0.5554460813        0.9909624260 m 1 1 1
        0.3324321547        0.3328823882        0.1548495487 m 1 1 1
        0.5680228444        0.4506773166        0.3248555428 m 1 1 1
        0.5558847715        0.4446098406        0.0737486234 m 1 1 1
        0.4459874372        0.5538825323        0.2442261150 m 1 1 1
        0.3335912814        0.3334591963        0.4064839752 m 1 1 1
        0.7777766743        0.5555569000        0.9901002445 m 1 1 1
        0.6662296815        0.3324590182        0.1536923081 m 1 1 1
        0.8826558372        0.4506755722        0.3248556718 m 1 1 1
        0.8887235258        0.4446098023        0.0737483769 m 1 1 1
        0.7777787570        0.5555545948        0.2441955115 m 1 1 1
        0.6863402040        0.3726652013        0.3959723968 m 1 1 1
        0.1116368416        0.8895281955        0.9909623049 m 1 1 1
        0.0008742202        0.6671034412        0.1536923456 m 1 1 1
        0.2191595618        0.7762447546        0.3266169170 m 1 1 1
        0.2219697991        0.7776525087        0.0742765785 m 1 1 1
        0.1078969308        0.8873455336        0.2442265501 m 1 1 1
        0.9606680407        0.6469971247        0.3959723114 m 1 1 1
        0.4444430627        0.8888905460        0.9919050526 m 1 1 1
        0.3328922583        0.6657837862        0.1552631025 m 1 1 1
        0.5570889137        0.7762442246        0.3266168322 m 1 1 1
        0.5556811975        0.7776525598        0.0742764087 m 1 1 1
        0.4444452774        0.8888880349        0.2425550255 m 1 1 1
        0.3324987257        0.6649928485        0.4067663342 m 1 1 1
        0.7778875424        0.8895281299        0.9909623686 m 1 1 1
        0.6662304502        0.6671031488        0.1536926202 m 1 1 1
        0.8826572178        0.7653103558        0.3248555305 m 1 1 1
        0.8887237995        0.7774487806        0.0737486654 m 1 1 1
        0.7794510691        0.8873454518        0.2442262858 m 1 1 1
        0.6863336765        0.6469966692        0.3959725836 m 1 1 1

Ce #label
0.0000   #magnetism
26 #number of atoms
        0.0000693962        0.0001413325        0.0330519464 m 1 1 1
        0.2220923610        0.1112412032        0.1996409220 m 1 1 1
        0.1111124272        0.2222206948        0.3657843001 m 1 1 1
        0.3332741338        0.0000593519        0.0335048343 m 1 1 1
        0.5558423538        0.1116835206        0.1996952612 m 1 1 1
        0.4448489837        0.2240712209        0.3647881158 m 1 1 1
        0.6667823176        0.0000592538        0.0335046672 m 1 1 1
        0.8891500670        0.1112411002        0.1996406436 m 1 1 1
        0.7792265028        0.2240702931        0.3647881384 m 1 1 1
        0.0000694439        0.3332640313        0.0330516031 m 1 1 1
        0.2220919394        0.4441832364        0.1996406734 m 1 1 1
        0.1092622324        0.5541066858        0.3647881761 m 1 1 1
        0.3331921966        0.3332641768        0.0330519660 m 1 1 1
        0.5562095471        0.4447708223        0.1975219461 m 1 1 1
        0.4448478933        0.5541062070        0.3647879676 m 1 1 1
        0.6665708294        0.3331442776        0.0320051133 m 1 1 1
        0.8885622620        0.4447706339        0.1975215147 m 1 1 1
        0.0001892372        0.6667625939        0.0320051850 m 1 1 1
        0.2216497340        0.7774908315        0.1996953195 m 1 1 1
        0.1092624515        0.8884847511        0.3647882183 m 1 1 1
        0.3332743893        0.6665512408        0.0335047563 m 1 1 1
        0.5558426346        0.7774907666        0.1996951561 m 1 1 1
        0.4444459395        0.8888871657        0.3642932212 m 1 1 1
        0.6665710435        0.6667625989        0.0320054373 m 1 1 1
        0.8885627588        0.7771237372        0.1975219566 m 1 1 1
        0.7792268792        0.8884847322        0.3647879944 m 1 1 1

Zr #label
0.0000   #magnetism
1 #number of atoms
        0.7777785173        0.5555545832        0.3454503565 m 1 1 1
